100
324 621 9 983 823 1000 264 200 55 194 25 692 366 816 761 350 167 348 31 649 190 149 889 438 947 981 664 250 148 247 737 512 298 18 352 393 70 250 296 416 494 566 850 295 95 304 217 576 477 322 95 752 624 624 703 855 36 189 472 701 505 506 308 244 874 983 500 468 129 602 212 626 279 468 866 312 535 319 486 868 493 965 408 455 645 502 672 291 14 423 65 249 598 691 910 679 556 345 477 289 
324 621 9 981 822 999 264 198 54 192 24 690 366 816 759 348 165 348 30 648 189 147 888 438 945 981 663 249 147 246 735 510 297 18 351 393 69 249 294 414 492 564 849 294 93 303 216 576 477 321 93 750 624 624 702 855 36 189 471 699 504 504 306 243 873 981 498 468 129 600 210 624 279 468 864 312 534 318 486 867 492 963 408 453 645 501 672 291 12 423 63 249 597 690 909 678 555 345 477 288 
22765
